
Gurobi 11.0.0 (win64) logging started Sat Jun 15 10:31:02 2024

Set parameter LogFile to value "./GurobiLog/stage_3_iter_33.log"
Gurobi Optimizer version 11.0.0 build v11.0.0rc2 (win64 - Windows 10.0 (18363.2))

CPU model: Intel(R) Core(TM) i7-8700 CPU @ 3.20GHz, instruction set [SSE2|AVX|AVX2]
Thread count: 6 physical cores, 12 logical processors, using up to 1 threads

Optimize a model with 1065 rows, 10910 columns and 18470 nonzeros
Coefficient statistics:
  Matrix range     [1e+00, 4e+01]
  Objective range  [2e+00, 2e+05]
  Bounds range     [1e+00, 8e+03]
  RHS range        [1e+00, 3e+04]
LP warm-start: use basis
Iteration    Objective       Primal Inf.    Dual Inf.      Time
       0    3.4061511e+03   1.996556e+03   0.000000e+00      0s
     197    1.0055931e+04   0.000000e+00   0.000000e+00      0s

Solved in 197 iterations and 0.01 seconds (0.00 work units)
Optimal objective  1.005593144e+04
